tsp_instances/TSP50/instance98.tsp
NODE_COORD_SECTION
0 132 182
1 183 193
2 184 18
3 81 120
4 22 153
5 99 180
6 66 13
7 92 120
8 11 62
9 85 161
10 191 122
11 161 157
12 120 186
13 10 118
14 70 76
15 189 76
16 125 45
17 37 0
18 35 185
19 193 188
20 93 127
21 101 94
22 55 91
23 103 188
24 40 133
25 83 178
26 191 59
27 80 5
28 49 129
29 35 122
30 131 77
31 141 183
32 132 36
33 56 1
34 137 94
35 149 33
36 100 7
37 69 75
38 12 173
39 174 27
40 18 78
41 124 139
42 3 69
43 178 86
44 139 96
45 198 195
46 31 61
47 101 94
48 135 61
49 148 43
