tsp_instances/TSP50/instance98.opt.tour
TOUR_SECTION
1
13
24
6
26
10
19
39
5
14
30
25
29
4
8
21
42
45
35
31
22
48
15
38
23
41
43
9
47
18
34
7
28
37
33
17
49
50
36
40
3
27
16
44
11
12
20
46
2
32
-1